!Calculate solvent effects
 $SYSTEM MWORDS=125 $END
 $BASIS GBASIS=PM3 $END
 $CONTRL SCFTYP=RHF RUNTYP=ENERGY ICHARG=0 $END
 $PCM SOLVNT=WATER MXTS=15000 ICAV=1 IDISP=1 $END
 $TESCAV MTHALL=4 NTSALL=60 $END
 
