!   Calculation of molecular orbitals
!   using a small and quick basis set
 $CONTRL COORD=CART UNITS=ANGS SCFTYP=RHF
 icharg=0
 MAXIT=60 $END
 $BASIS GBASIS=STO NGAUSS=3 $END
